data/solutions/recovery/wellformed/intermediate/binding/wellformed_intermediate_instance84/22.sol
Elapsed time: 100.15
Upper bound: 156911.0
Planning weighted value: 8326456681.0
C[0]=156911.0
C[1]=156904.0
C[2]=156887.0
C[3]=156873.0
C[4]=156865.0
C[5]=156858.0
C[6]=156851.0
C[7]=156844.0
C[8]=156835.0
C[9]=156770.0
C[10]=156749.0
C[11]=156734.0
C[12]=156631.0
C[13]=156206.0
C[14]=0.0
C[15]=0.0
y[0]=10
y[1]=7
y[2]=0
y[3]=13
y[4]=10
y[5]=11
y[6]=8
y[7]=3
y[8]=5
y[9]=3
y[10]=5
y[11]=6
y[12]=1
y[13]=4
y[14]=13
y[15]=5
y[16]=10
y[17]=8
y[18]=7
y[19]=5
y[20]=2
y[21]=9
y[22]=7
y[23]=9
y[24]=9
y[25]=9
y[26]=12
y[27]=4
y[28]=10
y[29]=5
y[30]=11
y[31]=12
y[32]=11
y[33]=10
y[34]=9
y[35]=0
y[36]=5
y[37]=0
y[38]=1
y[39]=11
y[40]=10
y[41]=9
y[42]=9
y[43]=9
y[44]=3
y[45]=10
y[46]=3
y[47]=13
y[48]=13
y[49]=1
y[50]=9
y[51]=9
y[52]=1
y[53]=6
y[54]=2
y[55]=9
y[56]=9
y[57]=9
y[58]=10
y[59]=10
y[60]=9
y[61]=2
y[62]=2
y[63]=9
y[64]=9
y[65]=10
y[66]=6
y[67]=9
y[68]=8
y[69]=9
y[70]=9
y[71]=9
y[72]=11
y[73]=4
y[74]=13
y[75]=9
y[76]=9
y[77]=9
y[78]=5
y[79]=10
y[80]=8
y[81]=10
y[82]=2
y[83]=9
y[84]=12
y[85]=6
y[86]=7
y[87]=1
y[88]=7
y[89]=9
y[90]=2
y[91]=0
y[92]=10
y[93]=9
y[94]=2
y[95]=9
y[96]=9
y[97]=13
y[98]=9
y[99]=9
y[100]=0
y[101]=9
y[102]=8
y[103]=9
y[104]=9
y[105]=10
y[106]=13
y[107]=9
y[108]=10
y[109]=6
y[110]=7
y[111]=8
y[112]=10
y[113]=9
y[114]=9
y[115]=2
y[116]=13
y[117]=10
y[118]=6
y[119]=7
y[120]=0
y[121]=9
y[122]=2
y[123]=9
y[124]=2
y[125]=3
y[126]=1
y[127]=2
y[128]=0
y[129]=6
y[130]=9
y[131]=0
y[132]=9
y[133]=9
y[134]=0
y[135]=12
y[136]=8
y[137]=9
y[138]=6
y[139]=7
y[140]=0
y[141]=4
y[142]=3
y[143]=9
y[144]=12
y[145]=5
y[146]=4
y[147]=12
y[148]=5
y[149]=10
y[150]=10
y[151]=2
y[152]=10
y[153]=9
y[154]=4
y[155]=8
y[156]=9
y[157]=10
y[158]=10
y[159]=9
y[160]=1
y[161]=11
y[162]=11
y[163]=10
y[164]=12
y[165]=2
y[166]=9
y[167]=8
y[168]=11
y[169]=9
y[170]=9
y[171]=9
y[172]=11
y[173]=0
y[174]=13
y[175]=11
y[176]=6
y[177]=9
y[178]=3
y[179]=4
y[180]=4
y[181]=10
y[182]=10
y[183]=3
y[184]=12
y[185]=7
y[186]=9
y[187]=8
y[188]=9
y[189]=1
y[190]=6
y[191]=10
y[192]=12
y[193]=3
y[194]=0
y[195]=1
y[196]=13
y[197]=7
y[198]=9
y[199]=9
y[200]=0
y[201]=2
y[202]=3
y[203]=6
y[204]=13
y[205]=12
y[206]=4
y[207]=11
y[208]=1
y[209]=0
y[210]=4
y[211]=5
y[212]=9
y[213]=13
