data/solutions/recovery/wellformed/intermediate/binding/wellformed_intermediate_instance84/22.log

Log started (V12.6.3.0) Fri Apr 20 20:51:08 2018

New value for default parallel thread count: 1

Problem '/tmp/tmp8m0Juy.pyomo.lp' read.
Read time = 0.08 sec. (8.10 ticks)

Problem name         : /tmp/tmp8m0Juy.pyomo.lp
Objective sense      : Minimize
Variables            :    3442  [Nneg: 1,  Binary: 3424,  General Integer: 17]
Objective nonzeros   :       1
Linear constraints   :     463  [Less: 230,  Equal: 233]
  Nonzeros           :  597837
  RHS nonzeros       :     215

Variables            : Min LB: 0.000000         Max UB: 1.000000       
Objective nonzeros   : Min   : 1.000000         Max   : 1.000000       
Linear constraints   :
  Nonzeros           : Min   : 1.000000         Max   : 19973.00       
  RHS nonzeros       : Min   : 1.000000         Max   : 1.000000       
Tried aggregator 2 times.
MIP Presolve eliminated 406 rows and 3021 columns.
Aggregator did 14 substitutions.
Reduced MIP has 43 rows, 407 columns, and 826 nonzeros.
Reduced MIP has 406 binaries, 1 generals, 0 SOSs, and 0 indicators.
Presolve time = 0.02 sec. (37.70 ticks)
Found incumbent of value 540813.000000 after 0.04 sec. (51.72 ticks)
Probing time = 0.00 sec. (0.49 ticks)
Tried aggregator 1 time.
Reduced MIP has 43 rows, 407 columns, and 826 nonzeros.
Reduced MIP has 406 binaries, 1 generals, 0 SOSs, and 0 indicators.
Presolve time = 0.00 sec. (0.72 ticks)
Probing time = 0.00 sec. (0.49 ticks)
Clique table members: 29.
MIP emphasis: balance optimality and feasibility.
MIP search method: dynamic search.
Parallel mode: none, using 1 thread.
Root relaxation solution time = 0.00 sec. (0.75 ticks)

        Nodes                                         Cuts/
   Node  Left     Objective  IInf  Best Integer    Best Bound    ItCnt     Gap

*     0+    0                       540813.0000   156749.0000            71.02%
      0     0   156779.8571    26   540813.0000   156779.8571       79   71.01%
*     0+    0                       164818.0000   156779.8571             4.88%
      0     0   156780.0000    34   164818.0000      Cuts: 16      142    4.88%
      0     0   156782.1265    37   164818.0000      Cuts: 28      203    4.88%
*     0+    0                       164384.0000   156782.1265             4.62%
*     0+    0                       162960.0000   156782.1265             3.79%
*     0+    0                       162583.0000   156782.1265             3.57%
      0     2   156782.1265    24   162583.0000   156782.1265      203    3.57%
Elapsed time = 0.06 sec. (70.96 ticks, tree = 0.01 MB, solutions = 5)
*    10+   10                       162095.0000   156782.1265             3.28%
*    20+   20                       161805.0000   156782.1265             3.10%
*    40+   40                       161619.0000   156782.1265             2.99%
*    70+   68                       161215.0000   156782.1265             2.75%
*    80+   76                       160837.0000   156782.1265             2.52%
*    80+   74                       160096.0000   156782.1265             2.07%
*    90+   84                       159964.0000   156782.1265             1.99%
*   100+   82                       159500.0000   156782.1265             1.70%
*   120+   97                       159490.0000   156782.1265             1.70%
*   130+   92                       159273.0000   156782.1265             1.56%
*   140+  101                       158489.0000   156782.1265             1.08%
*   150+  109                       158267.0000   156782.1265             0.94%
*   152   108      integral     0   158091.0000   156782.1265     1040    0.83%
*   160+  107                       158017.0000   156782.1265             0.78%
*   400+  284                       157915.0000   156782.1265             0.72%
*   440+  320                       157858.0000   156782.1265             0.68%
*   540+  404                       157778.0000   156782.1265             0.63%
*   652+  337                       157682.0000   156783.0000             0.57%
*   852+  202                       157573.0000   156783.0000             0.50%
*   852+  174                       157501.0000   156783.0000             0.46%
*   852+  154                       157419.0000   156783.0000             0.40%
*   852+  130                       157310.0000   156783.0000             0.34%
*   852+  117                       157267.0000   156783.0000             0.31%
    852   118   156783.0000    27   157267.0000   156783.0000     4429    0.31%
    853   118   157101.0000    28   157267.0000   156783.0000     4440    0.31%
    854   119   157101.0000    25   157267.0000   156783.0000     4442    0.31%
    855   119   157101.0000    27   157267.0000   156783.0000     4445    0.31%
    856   119   157101.0000    26   157267.0000   156783.0000     4447    0.31%
    857   119   157101.0000    27   157267.0000   156783.0000     4449    0.31%
    858   120   157101.0000    25   157267.0000   156783.0000     4450    0.31%
    859   121   157101.0000    20   157267.0000   156783.0000     4461    0.31%
    860   122   157101.0000    20   157267.0000   156783.0000     4472    0.31%
*  1052+  232                       157262.0000   156783.0000             0.30%
*  1152+  281                       157234.0000   156783.0000             0.29%
   1252   345   157196.0000    22   157234.0000   156783.0000     6283    0.29%
Elapsed time = 1.04 sec. (1281.47 ticks, tree = 0.12 MB, solutions = 30)
   6882  4762   156786.1667    32   157234.0000   156783.0000    45450    0.29%
   6883  4763   156786.1667    29   157234.0000   156783.0000    45458    0.29%
   6884  4764   156786.1667    29   157234.0000   156783.0000    45459    0.29%
   6885  4765   156786.1667    29   157234.0000   156783.0000    45460    0.29%
   6886  4766   156786.1667    32   157234.0000   156783.0000    45465    0.29%
   6887  4767   156786.1667    29   157234.0000   156783.0000    45467    0.29%
   6888  4768   156786.1667    28   157234.0000   156783.0000    45478    0.29%
   6889  4769   156786.1667    32   157234.0000   156783.0000    45505    0.29%
   6890  4770   156786.1667    26   157234.0000   156783.0000    45518    0.29%
   6891  4771   156786.1667    26   157234.0000   156783.0000    45519    0.29%
Elapsed time = 1.88 sec. (2236.45 ticks, tree = 1.68 MB, solutions = 30)
* 10132+ 6319                       157171.0000   156783.0000             0.25%
  10330  6460   156783.0000    46   157171.0000   156783.0000    84252    0.25%
  10331  6461   156783.0000    40   157171.0000   156783.0000    84277    0.25%
  10332  6462   156783.0000    38   157171.0000   156783.0000    84296    0.25%
  10333  6463   156783.0000    37   157171.0000   156783.0000    84315    0.25%
  10334  6464   156783.0000    38   157171.0000   156783.0000    84318    0.25%
  10335  6465   156783.0000    38   157171.0000   156783.0000    84321    0.25%
  10336  6466   156783.0000    40   157171.0000   156783.0000    84331    0.25%
  10337  6467   156783.0000    34   157171.0000   156783.0000    84372    0.25%
  10338  6468   156783.0000    44   157171.0000   156783.0000    84398    0.25%
  10339  6469   156783.0000    43   157171.0000   156783.0000    84399    0.25%
Elapsed time = 2.72 sec. (3195.60 ticks, tree = 2.20 MB, solutions = 31)
  12358  7960   157106.2432    47   157171.0000   156783.0000   127901    0.25%
  12359  7961   157111.4262    42   157171.0000   156783.0000   127904    0.25%
  12360  7960        cutoff         157171.0000   156783.0000   127907    0.25%
  12361  7959        cutoff         157171.0000   156783.0000   127910    0.25%
  12362  7960   156809.7209    59   157171.0000   156783.0000   128237    0.25%
  12363  7961   156809.8808    60   157171.0000   156783.0000   128254    0.25%
  12364  7962   156809.9035    57   157171.0000   156783.0000   128257    0.25%
  12365  7963   156809.9588    59   157171.0000   156783.0000   128266    0.25%
  12366  7964   156810.0870    60   157171.0000   156783.0000   128287    0.25%
  12367  7965   156810.0877    60   157171.0000   156783.0000   128288    0.25%
Elapsed time = 3.47 sec. (4163.35 ticks, tree = 2.66 MB, solutions = 31)
  13548  8654   156954.0002    65   157171.0000   156783.0000   171126    0.25%
  13549  8655   156954.0002    50   157171.0000   156783.0000   171237    0.25%
  13550  8656   156954.0002    46   157171.0000   156783.0000   171349    0.25%
  13551  8657   156954.0002    45   157171.0000   156783.0000   171355    0.25%
  13552  8658   156954.0002    43   157171.0000   156783.0000   171362    0.25%
  13553  8659   156954.0002    50   157171.0000   156783.0000   171492    0.25%
  13554  8660   156954.0002    41   157171.0000   156783.0000   171556    0.25%
  13555  8661   156954.0002    46   157171.0000   156783.0000   171565    0.25%
  13556  8662   156954.0002    48   157171.0000   156783.0000   171587    0.25%
  13557  8663   156954.3286    60   157171.0000   156783.0000   171758    0.25%
Elapsed time = 4.20 sec. (5149.80 ticks, tree = 3.11 MB, solutions = 31)
  14619  9349   156783.0000    55   157171.0000   156783.0000   210735    0.25%
  14620  9350   156783.0000    52   157171.0000   156783.0000   210793    0.25%
  14621  9351   156783.0000    47   157171.0000   156783.0000   210799    0.25%
  14622  9352   156783.0000    63   157171.0000   156783.0000   210904    0.25%
  14623  9353   156783.0000    58   157171.0000   156783.0000   210927    0.25%
  14624  9354   156783.0000    55   157171.0000   156783.0000   210967    0.25%
  14625  9355   156783.0000    55   157171.0000   156783.0000   211003    0.25%
  14626  9356   156783.0000    56   157171.0000   156783.0000   211072    0.25%
  14627  9357   156783.0000    50   157171.0000   156783.0000   211135    0.25%
  14628  9358   156783.0000    48   157171.0000   156783.0000   211169    0.25%
Elapsed time = 4.89 sec. (6113.20 ticks, tree = 3.34 MB, solutions = 31)
  15718 10047        cutoff         157171.0000   156783.0000   251117    0.25%
  15719 10046        cutoff         157171.0000   156783.0000   251312    0.25%
  15720 10045        cutoff         157171.0000   156783.0000   251549    0.25%
  15721 10044        cutoff         157171.0000   156783.0000   251622    0.25%
  15722 10045   156783.0000    65   157171.0000   156783.0000   252005    0.25%
  15723 10046   156783.0000    62   157171.0000   156783.0000   252013    0.25%
  15724 10047   156783.0000    57   157171.0000   156783.0000   252080    0.25%
  15725 10048   156783.0000    54   157171.0000   156783.0000   252210    0.25%
  15726 10049   156783.0000    49   157171.0000   156783.0000   252231    0.25%
  15727 10050   156783.0000    47   157171.0000   156783.0000   252233    0.25%
Elapsed time = 5.62 sec. (7106.50 ticks, tree = 3.56 MB, solutions = 31)
  16633 10629   157080.2498    63   157171.0000   156783.0000   292156    0.25%
  16634 10630   157080.2498    61   157171.0000   156783.0000   292161    0.25%
  16635 10631   157080.8420    57   157171.0000   156783.0000   292176    0.25%
  16636 10632   157081.9101    55   157171.0000   156783.0000   292219    0.25%
  16637 10633   157082.5392    55   157171.0000   156783.0000   292221    0.25%
  16638 10634   157082.5823    52   157171.0000   156783.0000   292228    0.25%
  16639 10635   157085.8381    50   157171.0000   156783.0000   292235    0.25%
  16640 10636   157086.2596    44   157171.0000   156783.0000   292243    0.25%
  16641 10637   157088.3402    46   157171.0000   156783.0000   292265    0.25%
  16642 10636   157156.0115    46   157171.0000   156783.0000   292308    0.25%
Elapsed time = 6.30 sec. (8063.61 ticks, tree = 3.75 MB, solutions = 31)
  17590 11264   156909.6212    57   157171.0000   156783.0000   328488    0.25%
  17591 11265   156909.6212    56   157171.0000   156783.0000   328489    0.25%
  17592 11266   156909.6212    55   157171.0000   156783.0000   328608    0.25%
  17593 11267   156909.6212    58   157171.0000   156783.0000   328731    0.25%
  17594 11268   156909.6212    56   157171.0000   156783.0000   328736    0.25%
  17595 11269   156909.6212    56   157171.0000   156783.0000   328738    0.25%
  17596 11270   156909.6212    54   157171.0000   156783.0000   328747    0.25%
  17597 11271   156909.6212    56   157171.0000   156783.0000   328756    0.25%
  17598 11272   156909.6212    55   157171.0000   156783.0000   328782    0.25%
  17599 11273   156909.6212    59   157171.0000   156783.0000   328814    0.25%
Elapsed time = 6.99 sec. (9025.21 ticks, tree = 3.96 MB, solutions = 31)
* 18402+ 8349                       157044.0000   156783.0000             0.17%
  18427  8358   156821.2975    53   157044.0000   156783.0000   364837    0.17%
  18428  8359   156821.3154    53   157044.0000   156783.0000   364838    0.17%
  18429  8360   156821.4132    54   157044.0000   156783.0000   364839    0.17%
  18430  8361   156821.5184    50   157044.0000   156783.0000   364840    0.17%
  18431  8360        cutoff         157044.0000   156783.0000   364864    0.17%
  18432  8359        cutoff         157044.0000   156783.0000   364869    0.17%
  18433  8360   156944.3709    51   157044.0000   156783.0000   365144    0.17%
  18434  8361   156972.9187    50   157044.0000   156783.0000   365166    0.17%
  18435  8362   156972.9463    52   157044.0000   156783.0000   365168    0.17%
  20980  9707   157011.0873    49   157044.0000   156783.0000   491916    0.17%
Elapsed time = 9.67 sec. (12840.59 ticks, tree = 3.73 MB, solutions = 32)
  24446 11702   157030.4000    27   157044.0000   156783.0000   660970    0.17%
  24447 11703   157030.4000    23   157044.0000   156783.0000   661037    0.17%
  24448 11703   157037.8998    19   157044.0000   156783.0000   661061    0.17%
  24449 11702        cutoff         157044.0000   156783.0000   661065    0.17%
  24450 11701        cutoff         157044.0000   156783.0000   661174    0.17%
  24451 11700        cutoff         157044.0000   156783.0000   661345    0.17%
  24452 11699        cutoff         157044.0000   156783.0000   661476    0.17%
  24453 11700   156783.0000    74   157044.0000   156783.0000   661759    0.17%
  24454 11701   156783.0000    69   157044.0000   156783.0000   661774    0.17%
  24455 11702   156783.0000    64   157044.0000   156783.0000   661959    0.17%
Elapsed time = 12.40 sec. (16680.38 ticks, tree = 4.64 MB, solutions = 32)
* 24652+11078                       157019.0000   156783.0000             0.15%
  27822 13151   156817.5714    38   157019.0000   156783.0000   811731    0.15%
  27823 13152   156817.5714    36   157019.0000   156783.0000   811734    0.15%
  27824 13153   156817.5714    38   157019.0000   156783.0000   811737    0.15%
  27825 13154   156894.5000    39   157019.0000   156783.0000   811810    0.15%
  27826 13155   156894.5000    39   157019.0000   156783.0000   811812    0.15%
  27827 13156   156894.5026    39   157019.0000   156783.0000   811814    0.15%
  27828 13157   156894.5100    41   157019.0000   156783.0000   811816    0.15%
  27829 13158   156900.1111    37   157019.0000   156783.0000   811818    0.15%
  27830 13157        cutoff         157019.0000   156783.0000   811822    0.15%
  27831 13158   156947.8602    32   157019.0000   156783.0000   811871    0.15%
Elapsed time = 15.12 sec. (20497.80 ticks, tree = 5.59 MB, solutions = 33)
* 30601 14020      integral     0   157006.0000   156783.0000   892840    0.14%
* 30701+13963                       157003.0000   156783.0000             0.14%
* 30701+12080                       156973.0000   156783.0000             0.12%
* 31152+10941                       156944.0000   156783.0000             0.10%
  32341 11657   156917.2317    48   156944.0000   156783.0000   959919    0.10%
  32342 11658   156917.8709    48   156944.0000   156783.0000   959923    0.10%
  32343 11658   156918.3138    47   156944.0000   156783.0000   959924    0.10%
  32344 11657        cutoff         156944.0000   156783.0000   959952    0.10%
  32345 11656        cutoff         156944.0000   156783.0000   960106    0.10%
  32346 11656   156916.7957    52   156944.0000   156783.0000   960274    0.10%
  32347 11655        cutoff         156944.0000   156783.0000   960286    0.10%
  32348 11655   156807.0000    46   156944.0000   156783.0000   960490    0.10%
  32349 11656   156807.0000    45   156944.0000   156783.0000   960491    0.10%
Elapsed time = 17.84 sec. (24331.15 ticks, tree = 7.85 MB, solutions = 37)
  36965 14498        cutoff         156944.0000   156783.0000  1125378    0.10%
  36966 14497    infeasible         156944.0000   156783.0000  1125378    0.10%
  36967 14498   156783.0000    50   156944.0000   156783.0000  1125465    0.10%
  36968 14499   156783.0000    47   156944.0000   156783.0000  1125466    0.10%
  36969 14498        cutoff         156944.0000   156783.0000  1125577    0.10%
  36970 14499   156783.0000    43   156944.0000   156783.0000  1125591    0.10%
  36971 14500   156904.1411    49   156944.0000   156783.0000  1125765    0.10%
  36972 14501   156783.0000    48   156944.0000   156783.0000  1125876    0.10%
  36973 14502   156904.1431    48   156944.0000   156783.0000  1125878    0.10%
  36974 14503   156909.9373    46   156944.0000   156783.0000  1125895    0.10%
Elapsed time = 20.55 sec. (28156.49 ticks, tree = 10.15 MB, solutions = 37)
  41774 17337   156829.6650    39   156944.0000   156783.0000  1288256    0.10%
  41775 17338   156837.3469    43   156944.0000   156783.0000  1288268    0.10%
  41776 17339   156882.1401    37   156944.0000   156783.0000  1288285    0.10%
  41777 17340   156882.2703    40   156944.0000   156783.0000  1288286    0.10%
  41778 17341   156882.9016    40   156944.0000   156783.0000  1288287    0.10%
  41779 17341   156882.9994    37   156944.0000   156783.0000  1288288    0.10%
  41780 17340        cutoff         156944.0000   156783.0000  1288291    0.10%
  41781 17339        cutoff         156944.0000   156783.0000  1288399    0.10%
  41782 17338        cutoff         156944.0000   156783.0000  1288610    0.10%
  41783 17339   156783.0000    53   156944.0000   156783.0000  1288749    0.10%
Elapsed time = 23.53 sec. (31980.36 ticks, tree = 13.53 MB, solutions = 37)
* 43652+18078                       156938.0000   156783.0000             0.10%
* 44042+16009                       156915.0000   156783.0000             0.08%
  46516 17514   156835.0213    57   156915.0000   156783.0000  1450226    0.08%
  46517 17515   156835.0213    54   156915.0000   156783.0000  1450310    0.08%
  46518 17516   156835.0213    50   156915.0000   156783.0000  1450351    0.08%
  46519 17517   156835.0213    49   156915.0000   156783.0000  1450368    0.08%
  46520 17518   156835.0213    58   156915.0000   156783.0000  1450397    0.08%
  46521 17519   156835.0213    55   156915.0000   156783.0000  1450400    0.08%
  46522 17520   156845.8975    49   156915.0000   156783.0000  1450413    0.08%
  46523 17521   156845.8975    50   156915.0000   156783.0000  1450479    0.08%
  46524 17520        cutoff         156915.0000   156783.0000  1450518    0.08%
  46525 17519        cutoff         156915.0000   156783.0000  1450735    0.08%
Elapsed time = 26.28 sec. (35807.41 ticks, tree = 12.92 MB, solutions = 39)
  50593 19747   156824.5455    69   156915.0000   156783.0000  1608059    0.08%
  50594 19748   156824.5455    63   156915.0000   156783.0000  1608071    0.08%
  50595 19749   156824.5455    51   156915.0000   156783.0000  1608197    0.08%
  50596 19750   156836.0000    42   156915.0000   156783.0000  1608310    0.08%
  50597 19751   156836.0000    39   156915.0000   156783.0000  1608335    0.08%
  50598 19752   156836.0000    51   156915.0000   156783.0000  1608417    0.08%
  50599 19753   156847.0174    44   156915.0000   156783.0000  1608533    0.08%
  50600 19754   156847.0174    43   156915.0000   156783.0000  1608534    0.08%
  50601 19755   156894.3867    42   156915.0000   156783.0000  1608557    0.08%
  50602 19754        cutoff         156915.0000   156783.0000  1608559    0.08%
Elapsed time = 29.00 sec. (39633.88 ticks, tree = 14.49 MB, solutions = 39)
  55452 22254   156825.1054    57   156915.0000   156783.0000  1787556    0.08%
  55453 22255   156801.3004    62   156915.0000   156783.0000  1787565    0.08%
  55454 22256   156819.4043    46   156915.0000   156783.0000  1787605    0.08%
  55455 22255        cutoff         156915.0000   156783.0000  1787636    0.08%
  55456 22256   156819.6133    47   156915.0000   156783.0000  1787660    0.08%
  55457 22257   156820.3711    44   156915.0000   156783.0000  1787663    0.08%
  55458 22258   156820.6025    49   156915.0000   156783.0000  1787672    0.08%
  55459 22257        cutoff         156915.0000   156783.0000  1787722    0.08%
  55460 22258   156847.6682    45   156915.0000   156783.0000  1787771    0.08%
  55461 22259   156852.4445    46   156915.0000   156783.0000  1787781    0.08%
Elapsed time = 31.80 sec. (43572.21 ticks, tree = 15.65 MB, solutions = 39)
* 59352+24388                       156911.0000   156783.0000             0.08%
  60893 25336   156783.1027    70   156911.0000   156783.0000  1943914    0.08%
  60894 25337   156783.1178    66   156911.0000   156783.0000  1943918    0.08%
  60895 25338   156783.1178    61   156911.0000   156783.0000  1943936    0.08%
  60896 25337        cutoff         156911.0000   156783.0000  1943950    0.08%
  60897 25338   156783.1180    61   156911.0000   156783.0000  1943951    0.08%
  60898 25339   156783.1180    62   156911.0000   156783.0000  1943957    0.08%
  60899 25340   156783.5451    64   156911.0000   156783.0000  1944002    0.08%
  60900 25341   156783.5451    64   156911.0000   156783.0000  1944003    0.08%
  60901 25340        cutoff         156911.0000   156783.0000  1944025    0.08%
  60902 25341   156783.5458    62   156911.0000   156783.0000  1944026    0.08%
Elapsed time = 34.73 sec. (47392.51 ticks, tree = 20.25 MB, solutions = 40)
  66048 28037   156897.3050    35   156911.0000   156783.0000  2076469    0.08%
  66049 28038   156897.3050    37   156911.0000   156783.0000  2076473    0.08%
  66050 28039   156897.3050    37   156911.0000   156783.0000  2076476    0.08%
  66051 28040   156897.3050    37   156911.0000   156783.0000  2076477    0.08%
  66052 28041   156897.3050    34   156911.0000   156783.0000  2076480    0.08%
  66053 28042   156897.3168    36   156911.0000   156783.0000  2076484    0.08%
  66054 28043   156897.3168    36   156911.0000   156783.0000  2076485    0.08%
  66055 28042   156909.6267    26   156911.0000   156783.0000  2076502    0.08%
  66056 28041        cutoff         156911.0000   156783.0000  2076511    0.08%
  66057 28042   156783.3843    62   156911.0000   156783.0000  2076671    0.08%
Elapsed time = 38.57 sec. (51212.81 ticks, tree = 26.37 MB, solutions = 40)
  70379 30498        cutoff         156911.0000   156783.0000  2203266    0.08%
  70380 30497        cutoff         156911.0000   156783.0000  2203386    0.08%
  70381 30496        cutoff         156911.0000   156783.0000  2203492    0.08%
  70382 30496   156849.2913    54   156911.0000   156783.0000  2203644    0.08%
  70383 30497   156868.7684    56   156911.0000   156783.0000  2203651    0.08%
  70384 30498   156875.7635    48   156911.0000   156783.0000  2203656    0.08%
  70385 30499   156875.8632    46   156911.0000   156783.0000  2203659    0.08%
  70386 30499   156883.2976    49   156911.0000   156783.0000  2203671    0.08%
  70387 30498        cutoff         156911.0000   156783.0000  2203673    0.08%
  70388 30497        cutoff         156911.0000   156783.0000  2203755    0.08%
Elapsed time = 42.46 sec. (55042.73 ticks, tree = 33.01 MB, solutions = 40)
  75681 33844        cutoff         156911.0000   156783.0000  2336543    0.08%
  75682 33843        cutoff         156911.0000   156783.0000  2336598    0.08%
  75683 33842        cutoff         156911.0000   156783.0000  2336748    0.08%
  75684 33843   156838.8093    44   156911.0000   156783.0000  2336851    0.08%
  75685 33842    infeasible         156911.0000   156783.0000  2336851    0.08%
  75686 33842   156843.1075    41   156911.0000   156783.0000  2336859    0.08%
  75687 33841    infeasible         156911.0000   156783.0000  2336859    0.08%
  75688 33842   156783.0000    51   156911.0000   156783.0000  2336943    0.08%
  75689 33843   156783.0000    57   156911.0000   156783.0000  2337070    0.08%
  75690 33842        cutoff         156911.0000   156783.0000  2337119    0.08%
Elapsed time = 46.33 sec. (58871.24 ticks, tree = 42.93 MB, solutions = 40)
  80403 36680   156783.0000    52   156911.0000   156783.0000  2463588    0.08%
  80404 36681   156783.0000    54   156911.0000   156783.0000  2463685    0.08%
  80405 36682   156783.0000    60   156911.0000   156783.0000  2463839    0.08%
  80406 36683   156783.1635    52   156911.0000   156783.0000  2463952    0.08%
  80407 36684   156798.4331    49   156911.0000   156783.0000  2463970    0.08%
  80408 36685   156798.4331    49   156911.0000   156783.0000  2463975    0.08%
  80409 36686   156813.6789    40   156911.0000   156783.0000  2463990    0.08%
  80410 36687   156863.0000    25   156911.0000   156783.0000  2464024    0.08%
  80411 36688   156863.0000    26   156911.0000   156783.0000  2464027    0.08%
  80412 36687        cutoff         156911.0000   156783.0000  2464057    0.08%
Elapsed time = 50.10 sec. (62701.90 ticks, tree = 51.26 MB, solutions = 40)
  84183 38584   156814.6047    37   156911.0000   156783.0000  2615721    0.08%
  84184 38585   156814.6047    38   156911.0000   156783.0000  2615735    0.08%
  84185 38586   156814.6047    41   156911.0000   156783.0000  2615738    0.08%
  84186 38587   156814.6047    40   156911.0000   156783.0000  2615751    0.08%
  84187 38588   156814.6047    38   156911.0000   156783.0000  2615757    0.08%
  84188 38589   156814.6047    42   156911.0000   156783.0000  2615763    0.08%
  84189 38590   156814.9643    43   156911.0000   156783.0000  2615774    0.08%
  84190 38591   156834.5697    45   156911.0000   156783.0000  2615819    0.08%
  84191 38592   156845.3468    40   156911.0000   156783.0000  2615828    0.08%
  84192 38593   156847.2170    38   156911.0000   156783.0000  2615829    0.08%
Elapsed time = 54.00 sec. (66520.11 ticks, tree = 53.48 MB, solutions = 40)
  88857 41228   156903.3122    46   156911.0000   156783.0000  2739409    0.08%
  88858 41227   156903.3602    41   156911.0000   156783.0000  2739411    0.08%
  88859 41226        cutoff         156911.0000   156783.0000  2739412    0.08%
  88860 41227   156785.5209    64   156911.0000   156783.0000  2739646    0.08%
  88861 41228   156785.5209    64   156911.0000   156783.0000  2739651    0.08%
  88862 41229   156785.5209    64   156911.0000   156783.0000  2739652    0.08%
  88863 41230   156785.5209    65   156911.0000   156783.0000  2739653    0.08%
  88864 41231   156785.5715    65   156911.0000   156783.0000  2739656    0.08%
  88865 41232   156786.5649    66   156911.0000   156783.0000  2739663    0.08%
  88866 41233   156787.8299    67   156911.0000   156783.0000  2739669    0.08%
Elapsed time = 57.84 sec. (70343.21 ticks, tree = 61.02 MB, solutions = 40)
  93242 43554   156783.0000    59   156911.0000   156783.0000  2889322    0.08%
  93243 43555   156783.0000    58   156911.0000   156783.0000  2889324    0.08%
  93244 43556   156783.0000    60   156911.0000   156783.0000  2889389    0.08%
  93245 43557   156783.0000    60   156911.0000   156783.0000  2889394    0.08%
  93246 43558   156783.0000    55   156911.0000   156783.0000  2889420    0.08%
  93247 43559   156783.0000    55   156911.0000   156783.0000  2889421    0.08%
  93248 43560   156783.0000    55   156911.0000   156783.0000  2889444    0.08%
  93249 43561   156783.0000    55   156911.0000   156783.0000  2889445    0.08%
  93250 43562   156783.8877    60   156911.0000   156783.0000  2889525    0.08%
  93251 43563   156785.0143    56   156911.0000   156783.0000  2889533    0.08%
Elapsed time = 61.75 sec. (74163.93 ticks, tree = 64.30 MB, solutions = 40)
  97469 46014        cutoff         156911.0000   156783.0000  3027427    0.08%
  97470 46015   156877.5317    37   156911.0000   156783.0000  3027444    0.08%
  97471 46016   156877.5317    35   156911.0000   156783.0000  3027445    0.08%
  97472 46016   156877.5317    30   156911.0000   156783.0000  3027446    0.08%
  97473 46015        cutoff         156911.0000   156783.0000  3027448    0.08%
  97474 46014        cutoff         156911.0000   156783.0000  3027561    0.08%
  97475 46015   156783.0000    62   156911.0000   156783.0000  3027679    0.08%
  97476 46016   156783.0000    54   156911.0000   156783.0000  3027690    0.08%
  97477 46017   156783.0000    55   156911.0000   156783.0000  3027721    0.08%
  97478 46018   156783.0000    61   156911.0000   156783.0000  3027764    0.08%
Elapsed time = 65.55 sec. (77987.60 ticks, tree = 67.09 MB, solutions = 40)
 100865 47765   156906.7063    52   156911.0000   156783.0000  3172754    0.08%
 100866 47766   156789.2614    77   156911.0000   156783.0000  3173225    0.08%
 100867 47767   156818.5971    66   156911.0000   156783.0000  3173386    0.08%
 100868 47766        cutoff         156911.0000   156783.0000  3173430    0.08%
 100869 47767   156826.3099    67   156911.0000   156783.0000  3173452    0.08%
 100870 47768   156829.1779    71   156911.0000   156783.0000  3173470    0.08%
 100871 47768   156855.7453    55   156911.0000   156783.0000  3173541    0.08%
 100872 47769   156855.7453    54   156911.0000   156783.0000  3173542    0.08%
 100873 47770   156883.5297    46   156911.0000   156783.0000  3173555    0.08%
 100874 47771   156883.5297    46   156911.0000   156783.0000  3173558    0.08%
Elapsed time = 69.41 sec. (81828.07 ticks, tree = 69.12 MB, solutions = 40)
 104486 49731   156904.0000    47   156911.0000   156783.0000  3314729    0.08%
 104487 49730        cutoff         156911.0000   156783.0000  3314772    0.08%
 104488 49731   156904.0000    51   156911.0000   156783.0000  3314820    0.08%
 104489 49730        cutoff         156911.0000   156783.0000  3314987    0.08%
 104490 49729    infeasible         156911.0000   156783.0000  3315100    0.08%
 104491 49728        cutoff         156911.0000   156783.0000  3315171    0.08%
 104492 49729   156783.0000    53   156911.0000   156783.0000  3315172    0.08%
 104493 49730   156783.0000    55   156911.0000   156783.0000  3315177    0.08%
 104494 49731   156783.0000    60   156911.0000   156783.0000  3315295    0.08%
 104495 49732   156783.0000    61   156911.0000   156783.0000  3315306    0.08%
Elapsed time = 73.26 sec. (85656.71 ticks, tree = 71.17 MB, solutions = 40)
 109371 52486   156822.4309    56   156911.0000   156783.0000  3457767    0.08%
 109372 52487   156822.4309    59   156911.0000   156783.0000  3457783    0.08%
 109373 52488   156834.1145    51   156911.0000   156783.0000  3457799    0.08%
 109374 52489   156835.2918    52   156911.0000   156783.0000  3457805    0.08%
 109375 52488        cutoff         156911.0000   156783.0000  3457817    0.08%
 109376 52487   156899.9512    30   156911.0000   156783.0000  3457840    0.08%
 109377 52488   156783.0000    51   156911.0000   156783.0000  3457963    0.08%
 109378 52489   156783.0000    52   156911.0000   156783.0000  3457990    0.08%
 109379 52490   156783.0000    51   156911.0000   156783.0000  3458049    0.08%
 109380 52491   156785.4387    49   156911.0000   156783.0000  3458215    0.08%
Elapsed time = 77.18 sec. (89486.59 ticks, tree = 78.31 MB, solutions = 40)
 113063 54338   156835.0000    17   156911.0000   156783.0000  3596324    0.08%
 113064 54339   156835.0000    19   156911.0000   156783.0000  3596326    0.08%
 113065 54340   156835.0000    19   156911.0000   156783.0000  3596337    0.08%
 113066 54341   156835.0000    18   156911.0000   156783.0000  3596339    0.08%
 113067 54342   156835.0000    18   156911.0000   156783.0000  3596340    0.08%
 113068 54343   156904.0000     8   156911.0000   156783.0000  3596352    0.08%
 113069 54344   156835.0000    18   156911.0000   156783.0000  3596353    0.08%
 113070 54344   156837.5000    16   156911.0000   156783.0000  3596368    0.08%
 113071 54345   156837.5000    19   156911.0000   156783.0000  3596378    0.08%
 113072 54346   156868.0000    12   156911.0000   156783.0000  3596397    0.08%
Elapsed time = 81.06 sec. (93303.40 ticks, tree = 81.19 MB, solutions = 40)
 116295 55774   156804.9547    53   156911.0000   156783.0000  3740497    0.08%
 116296 55775   156805.0061    51   156911.0000   156783.0000  3740502    0.08%
 116297 55776   156806.7379    55   156911.0000   156783.0000  3740520    0.08%
 116298 55775        cutoff         156911.0000   156783.0000  3740531    0.08%
 116299 55776   156806.7464    54   156911.0000   156783.0000  3740532    0.08%
 116300 55777   156806.9089    54   156911.0000   156783.0000  3740537    0.08%
 116301 55776        cutoff         156911.0000   156783.0000  3740547    0.08%
 116302 55777   156806.9204    53   156911.0000   156783.0000  3740550    0.08%
 116303 55778   156808.0196    53   156911.0000   156783.0000  3740557    0.08%
 116304 55777        cutoff         156911.0000   156783.0000  3740572    0.08%
Elapsed time = 84.93 sec. (97123.18 ticks, tree = 83.36 MB, solutions = 40)
 119640 57432   156898.1240    41   156911.0000   156783.0000  3874606    0.08%
 119641 57431        cutoff         156911.0000   156783.0000  3874611    0.08%
 119642 57430    infeasible         156911.0000   156783.0000  3874611    0.08%
 119643 57429        cutoff         156911.0000   156783.0000  3874793    0.08%
 119644 57428        cutoff         156911.0000   156783.0000  3874941    0.08%
 119645 57427        cutoff         156911.0000   156783.0000  3875084    0.08%
 119646 57426        cutoff         156911.0000   156783.0000  3875206    0.08%
 119647 57427   156783.0000    56   156911.0000   156783.0000  3875346    0.08%
 119648 57428   156783.0000    52   156911.0000   156783.0000  3875408    0.08%
 119649 57429   156783.0000    52   156911.0000   156783.0000  3875452    0.08%
Elapsed time = 88.74 sec. (100960.71 ticks, tree = 85.76 MB, solutions = 40)
 122950 59058        cutoff         156911.0000   156783.0000  4005637    0.08%
 122951 59057        cutoff         156911.0000   156783.0000  4005719    0.08%
 122952 59058   156792.8622    62   156911.0000   156783.0000  4006072    0.08%
 122953 59059   156793.1301    66   156911.0000   156783.0000  4006082    0.08%
 122954 59060   156793.1369    60   156911.0000   156783.0000  4006087    0.08%
 122955 59061   156793.3153    63   156911.0000   156783.0000  4006111    0.08%
 122956 59062   156793.3834    63   156911.0000   156783.0000  4006124    0.08%
 122957 59063   156793.3978    61   156911.0000   156783.0000  4006127    0.08%
 122958 59064   156793.4004    63   156911.0000   156783.0000  4006128    0.08%
 122959 59065   156795.3694    62   156911.0000   156783.0000  4006162    0.08%
Elapsed time = 92.75 sec. (104925.67 ticks, tree = 88.86 MB, solutions = 40)
 125129 60267   156800.9910    52   156911.0000   156783.0000  4079566    0.08%
 125130 60267   156802.6643    62   156911.0000   156783.0000  4079577    0.08%
 125131 60268   156802.6643    54   156911.0000   156783.0000  4079579    0.08%
 125132 60269   156802.7533    57   156911.0000   156783.0000  4079602    0.08%
 125133 60270   156802.8450    56   156911.0000   156783.0000  4079605    0.08%
 125134 60270   156802.8471    55   156911.0000   156783.0000  4079606    0.08%
 125135 60271   156803.7204    51   156911.0000   156783.0000  4079608    0.08%
 125136 60272   156808.7778    43   156911.0000   156783.0000  4079621    0.08%
 125137 60273   156811.9789    42   156911.0000   156783.0000  4079678    0.08%
 125138 60274   156811.9789    43   156911.0000   156783.0000  4079680    0.08%
Elapsed time = 96.23 sec. (108745.63 ticks, tree = 90.95 MB, solutions = 40)
 126948 61164   156835.6372    62   156911.0000   156783.0000  4137899    0.08%
 126949 61165   156836.5103    60   156911.0000   156783.0000  4137929    0.08%
 126950 61166   156836.5785    60   156911.0000   156783.0000  4137934    0.08%
 126951 61167   156836.8755    62   156911.0000   156783.0000  4137942    0.08%
 126952 61168   156837.3739    63   156911.0000   156783.0000  4137948    0.08%
 126953 61169   156837.4064    63   156911.0000   156783.0000  4137949    0.08%
 126954 61170   156849.2579    57   156911.0000   156783.0000  4137988    0.08%
 126955 61170   156852.5118    57   156911.0000   156783.0000  4137998    0.08%
 126956 61171   156877.9764    50   156911.0000   156783.0000  4138009    0.08%
 126957 61172   156877.9764    50   156911.0000   156783.0000  4138014    0.08%
Elapsed time = 99.64 sec. (112565.84 ticks, tree = 93.22 MB, solutions = 40)

Cover cuts applied:  121
Mixed integer rounding cuts applied:  90
Lift and project cuts applied:  2
Gomory fractional cuts applied:  2

Root node processing (before b&c):
  Real time             =    0.06 sec. (71.92 ticks)
Sequential b&c:
  Real time             =   99.94 sec. (112861.21 ticks)
                          ------------
Total (root+branch&cut) =  100.00 sec. (112933.14 ticks)

Solution pool: 40 solutions saved.

MIP - Time limit exceeded, integer feasible:  Objective =  1.5691100000e+05
Current MIP best bound =  1.5678300000e+05 (gap = 128, 0.08%)
Solution time =  100.00 sec.  Iterations = 4151323  Nodes = 127206 (61284)
Deterministic time = 112933.14 ticks  (1129.32 ticks/sec)


Incumbent solution written to file '/tmp/tmpvtZbRV.cplex.sol'.
